p cnf 10 50
-8 7 -2 0
2 -5 -7 0
-8 10 -9 0
-2 1 -9 0
10 6 -7 0
-8 -7 -10 0
5 -4 -8 0
6 5 8 0
6 -10 2 0
-4 6 -5 0
4 -5 -6 0
7 -1 3 0
8 6 4 0
-7 -6 -10 0
3 2 9 0
8 3 7 0
5 -1 2 0
2 5 -3 0
-7 -5 6 0
-8 3 9 0
-9 -5 -1 0
9 8 2 0
-3 4 -1 0
-1 -6 -4 0
-6 4 8 0
10 -3 -4 0
-10 -8 6 0
9 -8 -7 0
-7 -5 -8 0
-2 -6 8 0
1 7 -3 0
8 10 -2 0
10 -9 -8 0
-2 7 5 0
5 -4 -10 0
3 -7 9 0
1 -5 -9 0
-3 5 -9 0
-6 -8 1 0
-1 -4 -2 0
9 5 -7 0
5 -10 7 0
-10 7 3 0
-7 -10 2 0
-2 -6 1 0
-3 -9 -7 0
10 7 -5 0
3 4 1 0
9 -8 -5 0
6 3 2 0
